Version identifier: 20.1.0.0 | 2020-11-10 | 9bedb6d68
Tried aggregator 2 times.
MIP Presolve eliminated 275 rows and 240 columns.
Aggregator did 9 substitutions.
Reduced MIP has 21 rows, 25 columns, and 49 nonzeros.
Reduced MIP has 15 binaries, 0 generals, 0 SOSs, and 0 indicators.
Presolve time = 0.00 sec. (0.34 ticks)
Found incumbent of value 2.741709 after 0.00 sec. (0.39 ticks)
Probing fixed 0 vars, tightened 5 bounds.
Probing changed sense of 5 constraints.
Probing time = 0.00 sec. (0.02 ticks)
Cover probing fixed 0 vars, tightened 1 bounds.
Tried aggregator 1 time.
MIP Presolve eliminated 21 rows and 25 columns.
MIP Presolve modified 5 coefficients.
All rows and columns eliminated.
Presolve time = 0.00 sec. (0.01 ticks)

Root node processing (before b&c):
  Real time             =    0.01 sec. (1.43 ticks)
Parallel b&c, 10 threads:
  Real time             =    0.00 sec. (0.00 ticks)
  Sync time (average)   =    0.00 sec.
  Wait time (average)   =    0.00 sec.
                          ------------
Total (root+branch&cut) =    0.01 sec. (1.43 ticks)
